12° run output:
{
    "Function": "kroA500.tsp",
    "Problem dimension": [
        437,
        93,
        128,
        489,
        1,
        257,
        313,
        134,
        161,
        399,
        327,
        384,
        306,
        179,
        433,
        442,
        419,
        435,
        220,
        300,
        226,
        66,
        190,
        346,
        441,
        471,
        496,
        345,
        463,
        27,
        33,
        2,
        498,
        73,
        13,
        96,
        79,
        103,
        469,
        343,
        41,
        460,
        209,
        480,
        382,
        201,
        208,
        276,
        372,
        262,
        431,
        422,
        175,
        42,
        54,
        210,
        12,
        450,
        94,
        328,
        426,
        211,
        111,
        138,
        320,
        114,
        314,
        242,
        184,
        432,
        83,
        364,
        287,
        99,
        203,
        478,
        271,
        272,
        387,
        155,
        221,
        379,
        415,
        357,
        75,
        261,
        123,
        164,
        62,
        330,
        318,
        176,
        135,
        275,
        30,
        144,
        409,
        366,
        159,
        5,
        416,
        160,
        358,
        340,
        263,
        291,
        462,
        417,
        290,
        112,
        87,
        325,
        347,
        72,
        389,
        15,
        381,
        122,
        95,
        332,
        425,
        173,
        284,
        493,
        453,
        25,
        186,
        150,
        305,
        232,
        310,
        398,
        81,
        359,
        241,
        386,
        474,
        45,
        142,
        78,
        6,
        110,
        348,
        185,
        352,
        109,
        50,
        47,
        108,
        267,
        424,
        397,
        216,
        228,
        307,
        301,
        430,
        308,
        459,
        182,
        37,
        377,
        392,
        484,
        406,
        280,
        80,
        485,
        292,
        456,
        60,
        44,
        92,
        440,
        77,
        65,
        156,
        374,
        304,
        224,
        410,
        53,
        145,
        401,
        477,
        214,
        473,
        466,
        9,
        225,
        465,
        136,
        139,
        20,
        317,
        373,
        178,
        487,
        200,
        338,
        277,
        490,
        8,
        296,
        246,
        400,
        125,
        28,
        205,
        393,
        121,
        457,
        39,
        461,
        260,
        249,
        235,
        434,
        476,
        120,
        230,
        107,
        244,
        420,
        0,
        279,
        26,
        497,
        274,
        247,
        132,
        458,
        385,
        407,
        371,
        166,
        408,
        229,
        116,
        202,
        31,
        282,
        193,
        192,
        488,
        70,
        447,
        231,
        355,
        268,
        188,
        3,
        427,
        302,
        499,
        162,
        356,
        322,
        153,
        29,
        293,
        250,
        316,
        67,
        383,
        32,
        234,
        181,
        483,
        236,
        154,
        151,
        266,
        215,
        88,
        376,
        323,
        350,
        217,
        439,
        315,
        197,
        35,
        344,
        454,
        298,
        23,
        335,
        148,
        288,
        360,
        269,
        152,
        243,
        273,
        222,
        101,
        370,
        71,
        492,
        423,
        265,
        223,
        19,
        137,
        198,
        481,
        187,
        86,
        149,
        411,
        130,
        59,
        367,
        418,
        375,
        402,
        336,
        369,
        414,
        64,
        429,
        194,
        349,
        448,
        321,
        404,
        470,
        245,
        158,
        251,
        443,
        378,
        451,
        140,
        199,
        57,
        207,
        254,
        69,
        362,
        61,
        17,
        146,
        127,
        58,
        40,
        4,
        403,
        285,
        311,
        388,
        124,
        486,
        303,
        126,
        394,
        195,
        238,
        283,
        143,
        218,
        363,
        329,
        444,
        472,
        428,
        131,
        168,
        55,
        147,
        97,
        289,
        256,
        294,
        104,
        333,
        105,
        295,
        76,
        436,
        183,
        119,
        7,
        129,
        165,
        196,
        312,
        174,
        10,
        354,
        281,
        133,
        255,
        278,
        118,
        396,
        495,
        180,
        90,
        468,
        331,
        68,
        324,
        334,
        227,
        494,
        167,
        342,
        102,
        113,
        326,
        264,
        445,
        341,
        479,
        169,
        212,
        171,
        353,
        24,
        204,
        36,
        115,
        248,
        380,
        11,
        43,
        51,
        259,
        252,
        319,
        391,
        106,
        52,
        449,
        467,
        34,
        82,
        16,
        452,
        163,
        412,
        157,
        413,
        270,
        141,
        395,
        297,
        74,
        421,
        337,
        84,
        48,
        482,
        206,
        233,
        170,
        219,
        177,
        339,
        38,
        455,
        309,
        21,
        475,
        213,
        18,
        189,
        117,
        438,
        405,
        464,
        491,
        390,
        351,
        191,
        100,
        361,
        258,
        237,
        299,
        85,
        91,
        14,
        63,
        89,
        239,
        46,
        368,
        365,
        22,
        253,
        49,
        172,
        240,
        56,
        98,
        446,
        286
    ],
    "Global Optimum": 0,
    "Algorithm": "Genetic algorithm",
    "Parameters": {
        "population": 30,
        "offspring": 30,
        "mutation probability": 0.002,
        "crossover probability": 0.9
    },
    "Fitness": 520823,
    "Solution": [
        437,
        93,
        128,
        489,
        1,
        257,
        313,
        134,
        161,
        399,
        327,
        384,
        306,
        179,
        433,
        442,
        419,
        435,
        220,
        300,
        226,
        66,
        190,
        346,
        441,
        471,
        496,
        345,
        463,
        27,
        33,
        2,
        498,
        73,
        13,
        96,
        79,
        103,
        469,
        343,
        41,
        460,
        209,
        480,
        382,
        201,
        208,
        276,
        372,
        262,
        431,
        422,
        175,
        42,
        54,
        210,
        12,
        450,
        94,
        328,
        426,
        211,
        111,
        138,
        320,
        114,
        314,
        242,
        184,
        432,
        83,
        364,
        287,
        99,
        203,
        478,
        271,
        272,
        387,
        155,
        221,
        379,
        415,
        357,
        75,
        261,
        123,
        164,
        62,
        330,
        318,
        176,
        135,
        275,
        30,
        144,
        409,
        366,
        159,
        5,
        416,
        160,
        358,
        340,
        263,
        291,
        462,
        417,
        290,
        112,
        87,
        325,
        347,
        72,
        389,
        15,
        381,
        122,
        95,
        332,
        425,
        173,
        284,
        493,
        453,
        25,
        186,
        150,
        305,
        232,
        310,
        398,
        81,
        359,
        241,
        386,
        474,
        45,
        142,
        78,
        6,
        110,
        348,
        185,
        352,
        109,
        50,
        47,
        108,
        267,
        424,
        397,
        216,
        228,
        307,
        301,
        430,
        308,
        459,
        182,
        37,
        377,
        392,
        484,
        406,
        280,
        80,
        485,
        292,
        456,
        60,
        44,
        92,
        440,
        77,
        65,
        156,
        374,
        304,
        224,
        410,
        53,
        145,
        401,
        477,
        214,
        473,
        466,
        9,
        225,
        465,
        136,
        139,
        20,
        317,
        373,
        178,
        487,
        200,
        338,
        277,
        490,
        8,
        296,
        246,
        400,
        125,
        28,
        205,
        393,
        121,
        457,
        39,
        461,
        260,
        249,
        235,
        434,
        476,
        120,
        230,
        107,
        244,
        420,
        0,
        279,
        26,
        497,
        274,
        247,
        132,
        458,
        385,
        407,
        371,
        166,
        408,
        229,
        116,
        202,
        31,
        282,
        193,
        192,
        488,
        70,
        447,
        231,
        355,
        268,
        188,
        3,
        427,
        302,
        499,
        162,
        356,
        322,
        153,
        29,
        293,
        250,
        316,
        67,
        383,
        32,
        234,
        181,
        483,
        236,
        154,
        151,
        266,
        215,
        88,
        376,
        323,
        350,
        217,
        439,
        315,
        197,
        35,
        344,
        454,
        298,
        23,
        335,
        148,
        288,
        360,
        269,
        152,
        243,
        273,
        222,
        101,
        370,
        71,
        492,
        423,
        265,
        223,
        19,
        137,
        198,
        481,
        187,
        86,
        149,
        411,
        130,
        59,
        367,
        418,
        375,
        402,
        336,
        369,
        414,
        64,
        429,
        194,
        349,
        448,
        321,
        404,
        470,
        245,
        158,
        251,
        443,
        378,
        451,
        140,
        199,
        57,
        207,
        254,
        69,
        362,
        61,
        17,
        146,
        127,
        58,
        40,
        4,
        403,
        285,
        311,
        388,
        124,
        486,
        303,
        126,
        394,
        195,
        238,
        283,
        143,
        218,
        363,
        329,
        444,
        472,
        428,
        131,
        168,
        55,
        147,
        97,
        289,
        256,
        294,
        104,
        333,
        105,
        295,
        76,
        436,
        183,
        119,
        7,
        129,
        165,
        196,
        312,
        174,
        10,
        354,
        281,
        133,
        255,
        278,
        118,
        396,
        495,
        180,
        90,
        468,
        331,
        68,
        324,
        334,
        227,
        494,
        167,
        342,
        102,
        113,
        326,
        264,
        445,
        341,
        479,
        169,
        212,
        171,
        353,
        24,
        204,
        36,
        115,
        248,
        380,
        11,
        43,
        51,
        259,
        252,
        319,
        391,
        106,
        52,
        449,
        467,
        34,
        82,
        16,
        452,
        163,
        412,
        157,
        413,
        270,
        141,
        395,
        297,
        74,
        421,
        337,
        84,
        48,
        482,
        206,
        233,
        170,
        219,
        177,
        339,
        38,
        455,
        309,
        21,
        475,
        213,
        18,
        189,
        117,
        438,
        405,
        464,
        491,
        390,
        351,
        191,
        100,
        361,
        258,
        237,
        299,
        85,
        91,
        14,
        63,
        89,
        239,
        46,
        368,
        365,
        22,
        253,
        49,
        172,
        240,
        56,
        98,
        446,
        286
    ],
    "Nb of functions evaluations": 400020,
    "Computational time in seconds": 1767.0014889240265,
    "Stopping criterion in evaluations": 400000
}